(set-logic QF_S)
(declare-fun var0 () Int)
(declare-fun var1 () Int)
(declare-fun var2 () String)
(declare-fun var3 () Int)
(declare-fun var4 () String)
(declare-fun var5 () Int)
(declare-fun var6 () String)
(declare-fun var7 () String)
(assert (>= var0 var1))
(assert (str.contains (str.at var2 var3) (str.replace (str.substr var4 var5 var0) (str.substr "" var3 var5) (str.at var6 var3))))
(assert (>= var1 0))
(assert (str.in.re (str.at var7 var0) (re.+ re.allchar)))
(check-sat)